experiments/sat_smt/run/sat-r+/results/chris.res
solved=true
solvingTime=1.51023471355438232421875
nActions=7