experiments/sat_smt/run/sat-r+/results/chris.out
Timesteps: 1
s UNSATISFIABLE
real 0.09
user 0.01
sys 0.00
Timesteps: 2
s UNSATISFIABLE
real 0.12
user 0.02
sys 0.00
Timesteps: 3
s UNSATISFIABLE
real 0.14
user 0.03
sys 0.00
Timesteps: 4
s UNSATISFIABLE
real 0.10
user 0.04
sys 0.00
Timesteps: 5
s UNSATISFIABLE
real 0.16
user 0.06
sys 0.00
Timesteps: 6
s UNSATISFIABLE
real 0.19
user 0.11
sys 0.00
Timesteps: 7
s SATISFIABLE
real 0.41
user 0.25
sys 0.00
